NAME : Problem-3-10-A
TYPE : HVRP
DIMENSION : 11
EDGE_WEIGHT_TYPE : EUC_2D

NODE_COORD_SECTION
1 30 40
2 37 52
3 49 49
5 20 26
7 21 47
9 31 62
10 52 33
12 42 41
14 5 25
16 36 16
19 17 33

DEMAND_SECTION
1 0
2 7
3 30
5 9
7 15
9 23
10 11
12 19
14 23
16 10
19 41

VEHICLE_TYPES
# id capacity fixed_cost var_cost
A 20 20 1
B 30 35 1 
C 40 50 1
D 70 120 1
E 120 225 1 
END_VEHICLE_TYPES

DEPOT_SECTION
1
-1
EOF
